c turning on binary mode checking
c parsing input formula with 259840 variables and 1039924 clauses
c finished parsing, read 40204421 bytes from proof file
c detected empty clause; start verification via backward checking
c 77216 of 1039924 clauses in core                            
c 137399 of 823458 lemmas in core using 1730092 resolution steps
c 0 RAT lemmas in core; 18603 redundant literals in core lemmas
s VERIFIED
c verification time: 8.524 seconds
